************************************************************************
file with basedata            : mm11_.bas
initial value random generator: 305651900
************************************************************************
projects                      :  1
jobs (incl. supersource/sink ):  12
horizon                       :  78
RESOURCES
  - renewable                 :  2   R
  - nonrenewable              :  2   N
  - doubly constrained        :  0   D
************************************************************************
PROJECT INFORMATION:
pronr.  #jobs rel.date duedate tardcost  MPM-Time
    1     10      0       14        3       14
************************************************************************
PRECEDENCE RELATIONS:
jobnr.    #modes  #successors   successors
   1        1          3           2   3   4
   2        3          2           7  10
   3        3          2           5   6
   4        3          1           9
   5        3          3           8   9  11
   6        3          1           7
   7        3          2           9  11
   8        3          1          10
   9        3          1          12
  10        3          1          12
  11        3          1          12
  12        1          0        
************************************************************************
REQUESTS/DURATIONS:
jobnr. mode duration  R 1  R 2  N 1  N 2
------------------------------------------------------------------------
  1      1     0       0    0    0    0
  2      1     2       6    0    0    3
         2     6       5    0    9    0
         3     6       5    0    0    3
  3      1     1       0    4    0    9
         2     3       0    3    0    4
         3     9       0    3    4    0
  4      1     3       0    9    6    0
         2     5       5    0    0    1
         3     6       0    6    0    1
  5      1     4       9    0    4    0
         2     5       6    0    0    2
         3     9       0    3    2    0
  6      1     1       0    5    9    0
         2     5       0    3    7    0
         3     9       3    0    0    8
  7      1     3       5    0    6    0
         2     5       0    8    6    0
         3     9       4    0    0    9
  8      1     1       5    0    0    8
         2     2       0    9    0    6
         3     8       5    0    8    0
  9      1     3       6    0    5    0
         2     3       5    0    0    6
         3     9       0    7    0    6
 10      1     8       0    6    2    0
         2     9       8    0    0    7
         3     9       0    5    0    8
 11      1     3       0    9    0    4
         2     3       4    0    0    7
         3     4       2    0    5    0
 12      1     0       0    0    0    0
************************************************************************
RESOURCEAVAILABILITIES:
  R 1  R 2  N 1  N 2
   14   14   41   43
************************************************************************
MAXIMAL LAGS:
from  to  type  delay
    1   12   ES      0
    1    2   ES      0
    2   12   ES      0
    1    3   ES      0
    3   12   ES      0
    1    4   ES      0
    4   12   ES      0
    1    5   ES      0
    5   12   ES      0
    1    6   ES      0
    6   12   ES      0
    1    7   ES      0
    7   12   ES      0
    1    8   ES      0
    8   12   ES      0
    1    9   ES      0
    9   12   ES      0
    1   10   ES      0
   10   12   ES      0
    1   11   ES      0
   11   12   ES      0
    1   12   ES      0
    2    7   SS     -3
    2    7   SE      9
    2    7   ES      7
    2    7   EE     -9
    2   10   SS      6
    2   10   SE    -11
    2   10   ES     -1
    2   10   EE      5
    3    5   SS      1
    3    5   SE      9
    3    5   ES     -1
    3    5   EE    -10
    3    6   SS      4
    3    6   SE      8
    3    6   ES     -2
    3    6   EE    -12
    4    9   SS      1
    4    9   SE      3
    4    9   ES     -9
    4    9   EE      1
    5    8   SS     -1
    5    8   SE      8
    5    8   ES      2
    5    8   EE     10
    5    9   SS     -8
    5    9   SE      1
    5    9   ES     -7
    5    9   EE     11
    5   11   SS      4
    5   11   SE      8
    5   11   ES     -4
    5   11   EE      7
    6    7   SS      5
    6    7   SE     12
    6    7   ES      3
    6    7   EE      2
    7    9   SS      1
    7    9   SE     11
    7    9   ES      6
    7    9   EE     -4
    7   11   SS     -2
    7   11   SE     -5
    7   11   ES    -10
    7   11   EE     -4
    8   10   SS      2
    8   10   SE     -5
    8   10   ES     12
    8   10   EE      2
************************************************************************
